Name: ACar 4:0
Synon: [M]+
Synon: $:00in-source
DB#: LipidBlast000001
InChIKey: QWYFHHGCZUCMBN-UHFFFAOYSA-O
Precursor_type: [M]+
Spectrum_type: MS2
PrecursorMZ: 232.15433
Instrument_type: in-silico QTOF
Instrument: SCIEX 5600
Ion_mode: P
Collision_energy: 45 V
Formula: [C11H22NO4]+
MW: 232
ExactMass: 232.1543346040907
Comments: "SMILES=CCCC(=O)OC(CC(O)=O)C[N+](C)(C)C" "compound class=ACar" "computed SMILES=O=C(O)CC(OC(=O)CCC)C[N+](C)(C)C" "computed InChI=InChI=1S/C11H21NO4/c1-5-6-11(15)16-9(7-10(13)14)8-12(2,3)4/h9H,5-8H2,1-4H3/p+1" "retention time=0.51" "collision energy spread=15 V" "author=Tobias Kind, Hiroshi Tsugawa" "computed mass accuracy=2.3431646471704717" "computed mass error=5.439758187435473E-4" "SPLASH=splash10-001r-7090000000-aa12589a2481560ea0d5" "submitter=Tobias Kind (University of California, Davis)" "MoNA Rating=3.6363636363636367"
Num Peaks: 2
85.02841 80.080080
232.1543 100.000000


Name: ACar 5:0
Synon: [M]+
Synon: $:00in-source
DB#: LipidBlast000002
InChIKey: VSNFQQXVMPSASB-UHFFFAOYSA-O
Precursor_type: [M]+
Spectrum_type: MS2
PrecursorMZ: 246.16998
Instrument_type: in-silico QTOF
Instrument: SCIEX 5600
Ion_mode: P
Collision_energy: 45 V
Formula: [C12H24NO4]+
MW: 246
ExactMass: 246.16998466809073
Comments: "SMILES=CCCCC(=O)OC(CC(O)=O)C[N+](C)(C)C" "compound class=ACar" "computed SMILES=O=C(O)CC(OC(=O)CCCC)C[N+](C)(C)C" "computed InChI=InChI=1S/C12H23NO4/c1-5-6-7-12(16)17-10(8-11(14)15)9-13(2,3)4/h10H,5-9H2,1-4H3/p+1" "retention time=0.68" "collision energy spread=15 V" "author=Tobias Kind, Hiroshi Tsugawa" "computed mass accuracy=2.209496944908765" "computed mass error=5.439118187382519E-4" "SPLASH=splash10-000b-7090000000-2b596f4df94dfefba50b" "submitter=Tobias Kind (University of California, Davis)" "MoNA Rating=3.6363636363636367"
Num Peaks: 2
85.02841 80.080080
246.17 100.000000


Name: ACar 6:0
Synon: [M]+
Synon: $:00in-source
DB#: LipidBlast000003
InChIKey: VVPRQWTYSNDTEA-UHFFFAOYSA-O
Precursor_type: [M]+
Spectrum_type: MS2
PrecursorMZ: 260.18563
Instrument_type: in-silico QTOF
Instrument: SCIEX 5600
Ion_mode: P
Collision_energy: 45 V
Formula: [C13H26NO4]+
MW: 260
ExactMass: 260.18563473209076
Comments: "SMILES=CCCCCC(=O)OC(CC(O)=O)C[N+](C)(C)C" "compound class=ACar" "computed SMILES=O=C(O)CC(OC(=O)CCCCC)C[N+](C)(C)C" "computed InChI=InChI=1S/C13H25NO4/c1-5-6-7-8-13(17)18-11(9-12(15)16)10-14(2,3)4/h11H,5-10H2,1-4H3/p+1" "retention time=0.86" "collision energy spread=15 V" "author=Tobias Kind, Hiroshi Tsugawa" "computed mass accuracy=2.0902300356715053" "computed mass error=5.438478186761131E-4" "SPLASH=splash10-03dr-7090000000-a9ec485bc43949b4b278" "submitter=Tobias Kind (University of California, Davis)" "MoNA Rating=3.6363636363636367"
Num Peaks: 2
85.02841 80.080080
260.1856 100.000000


Name: CL 72:6
Synon: CL 14:0-22:6-18:0-18:0
Synon: $:00in-source
DB#: LipidBlast395475
InChIKey: KWABUIIFXPUAEH-OXNFOSRESA-N
Precursor_type: [M-H]-
Spectrum_type: MS2
PrecursorMZ: 1451.99625
Instrument_type: in-silico QTOF
Instrument: SCIEX 5600
Ion_mode: N
Collision_energy: 45 V
Formula: C81H146O17P2
MW: 1453
ExactMass: 1453.003526472
Comments: "SMILES=CCCCCCCCCCCCCCCCCC(=O)OCC(COP(O)(=O)OCC(O)COP(O)(=O)OCC(COC(=O)CC\C=C/C\C=C/C\C=C/C\C=C/C\C=C/C\C=C/CC)OC(=O)CCCCCCCCCCCCC)OC(=O)CCCCCCCCCCCCCCCCC" "compound class=CL" "computed SMILES=O=C(OCC(OC(=O)CCCCCCCCCCCCC)COP(=O)(O)OCC(O)COP(=O)(O)OCC(OC(=O)CCCCCCCCCCCCCCCCC)COC(=O)CCCCCCCCCCCCCCCCC)CCC=CCC=CCC=CCC=CCC=CCC=CCC" "computed InChI=InChI=1S/C81H146O17P2/c1-5-9-13-17-21-25-29-32-35-36-37-38-41-43-47-50-54-58-62-66-79(84)91-71-76(97-80(85)67-63-59-55-51-45-28-24-20-16-12-8-4)73-95-99(87,88)93-69-75(82)70-94-100(89,90)96-74-77(98-81(86)68-64-60-56-52-48-44-40-34-31-27-23-19-15-11-7-3)72-92-78(83)65-61-57-53-49-46-42-39-33-30-26-22-18-14-10-6-2/h9,13,21,25,32,35,37-38,43,47,54,58,75-77,82H,5-8,10-12,14-20,22-24,26-31,33-34,36,39-42,44-46,48-53,55-57,59-74H2,1-4H3,(H,87,88)(H,89,90)/b13-9-,25-21-,35-32-,38-37-,47-43-,58-54-" "retention time=11.91" "collision energy spread=15 V" "author=Tobias Kind, Hiroshi Tsugawa" "computed mass accuracy=3.2506971738511424E-4" "computed mass error=-4.720000106317457E-7" "SPLASH=splash10-0w4i-0134901100-d27b9577a1230ec65177" "submitter=Tobias Kind (University of California, Davis)" "MoNA Rating=4.5"
Num Peaks: 10
152.9958 30.030030
227.2016 50.050050
283.2643 50.050050
327.2329 50.050050
363.1942 70.070070
419.2568 70.070070
463.2255 70.070070
691.4344 50.050050
703.5283 50.050050
1451.996 100.000000


Name: CL 72:6
Synon: CL 16:0-18:1-16:1-22:4
Synon: $:00in-source
DB#: LipidBlast398514
InChIKey: WINXBODRGKNJDS-DUULZMMUSA-N
Precursor_type: [M-H]-
Spectrum_type: MS2
PrecursorMZ: 1451.99625
Instrument_type: in-silico QTOF
Instrument: SCIEX 5600
Ion_mode: N
Collision_energy: 45 V
Formula: C81H146O17P2
MW: 1453
ExactMass: 1453.003526472
Comments: "SMILES=CCCCCCCCCCCCCCCC(=O)OC(COC(=O)CCCCCCC\C=C/CCCCCCCC)COP(O)(=O)OCC(O)COP(O)(=O)OCC(COC(=O)CCCCCCCC\C=C/C\C=C/C\C=C/C\C=C/CC)OC(=O)CCCCCCC\C=C/CCCCCC" "compound class=CL" "computed SMILES=O=C(OCC(OC(=O)CCCCCCCCCCCCCCC)COP(=O)(O)OCC(O)COP(=O)(O)OCC(OC(=O)CCCCCCCC=CCCCCCC)COC(=O)CCCCCCCCC=CCC=CCC=CCC=CCC)CCCCCCCC=CCCCCCCCC" "computed InChI=InChI=1S/C81H146O17P2/c1-5-9-13-17-21-25-29-33-35-36-37-38-40-44-46-50-54-58-62-66-79(84)92-72-77(98-81(86)68-64-60-56-52-48-42-32-28-24-20-16-12-8-4)74-96-100(89,90)94-70-75(82)69-93-99(87,88)95-73-76(97-80(85)67-63-59-55-51-47-41-31-27-23-19-15-11-7-3)71-91-78(83)65-61-57-53-49-45-43-39-34-30-26-22-18-14-10-6-2/h9,13,21,25,28,32-35,37-39,75-77,82H,5-8,10-12,14-20,22-24,26-27,29-31,36,40-74H2,1-4H3,(H,87,88)(H,89,90)/b13-9-,25-21-,32-28-,35-33-,38-37-,39-34-" "retention time=11.65" "collision energy spread=15 V" "author=Tobias Kind, Hiroshi Tsugawa" "computed mass accuracy=3.2506971738511424E-4" "computed mass error=-4.720000106317457E-7" "SPLASH=splash10-0uyi-0157901100-d3b7dfa9dd7050026484" "submitter=Tobias Kind (University of California, Davis)" "MoNA Rating=4.5"
Num Peaks: 12
152.9958 30.030030
253.2173 50.050050
255.233 50.050050
281.2486 50.050050
331.2643 50.050050
389.2098 70.070070
391.2255 70.070070
417.2411 70.070070
467.2568 70.070070
673.4814 50.050050
721.4814 50.050050
1451.996 100.000000

